
Gurobi 6.5.0 (win64) logging started 02/14/17 18:15:02

Changed value of parameter Method to 2
   Prev: -1  Min: -1  Max: 4  Default: -1

Gurobi 6.5.0 (win64) logging started 02/14/17 18:16:48

Changed value of parameter Method to 2
   Prev: -1  Min: -1  Max: 4  Default: -1
